522382
505717
495620
495620
480452
480452
480452
479582
451220
451220
451220
451220
444931
437657
437657
432542
424137
424137
422148
422148
415163
403204
403204
403204
403204
403204
403204
401228
398674
394305
383749
383749
383749
383749
383749
383749
367766
365844
365844
363680
363680
363680
360562
353635
353635
353635
349335
349335
349335
349310
335865
335865
335865
335865
335865
335865
335865
335865
335865
335865
335065
328299
328299
328299
328299
327676
327676
327676
327676
325274
325274
322705
322705
322705
322705
322705
322705
322705
321966
316516
316516
316516
316516
309660
309660
309660
309660
309660
309660
309660
309660
309660
309660
309567
308222
308222
308222
308222
307105
305747
